0
Node Left Objective IInf Best_Integer Best_Bound ItCnt Gap
0 0 43.0201 6 43.0201 54
0 2 43.0201 6 43.0201 54 0 0
CPXPARAM_MIP_Cuts_CPXPARAM_MIP_Cuts_FlowCovers 0
1
Node Left Objective IInf Best_Integer Best_Bound ItCnt Gap
0 0 2.5600 6 2.5600 61
0 2 2.5600 6 2.5600 61 0 0
CPXPARAM_MIP_Cuts_CPXPARAM_MIP_Cuts_FlowCovers 0
2
Node Left Objective IInf Best_Integer Best_Bound ItCnt Gap
0 0 40.5363 2 40.5363 49
0+ 0 nan nan 40.6800 40.5363 nan 0.35%
0+ 0 nan nan 40.6800 40.5363 nan 0.35%
0 0 40.5363 2 40.6800 40.5363 97 0.35%
0 2 40.5363 2 40.6800 40.5363 97 0.35%
CPXPARAM_MIP_Cuts_CPXPARAM_MIP_Cuts_FlowCovers 0
3
Node Left Objective IInf Best_Integer Best_Bound ItCnt Gap
0 0 6.4123 1 6.4123 41
0+ 0 nan nan 6.4123 6.4123 nan 0.00%
0 0 cutoff 6.4123 6.4123 41 0.00% 0
CPXPARAM_MIP_Cuts_CPXPARAM_MIP_Cuts_FlowCovers 0
4
Node Left Objective IInf Best_Integer Best_Bound ItCnt Gap
0 0 50.7422 6 50.7422 57
0 2 50.7422 6 50.7422 57 0 0
CPXPARAM_MIP_Cuts_CPXPARAM_MIP_Cuts_FlowCovers 0
5
Node Left Objective IInf Best_Integer Best_Bound ItCnt Gap
0 0 2.3864 6 2.3864 56
0 2 2.3864 6 2.3864 56 0 0
CPXPARAM_MIP_Cuts_CPXPARAM_MIP_Cuts_FlowCovers 0
6
Node Left Objective IInf Best_Integer Best_Bound ItCnt Gap
0+ 0 nan nan 698.6785 -80.3724 nan 111.50%
0 0 49.1770 2 698.6785 49.1770 57 92.96%
0+ 0 nan nan 49.2390 49.1770 nan 0.13%
0+ 0 nan nan 49.2390 49.1770 nan 0.13%
0 0 49.1770 2 49.2390 49.1770 124 0.13%
0 2 49.1770 2 49.2390 49.1770 124 0.13%
CPXPARAM_MIP_Cuts_CPXPARAM_MIP_Cuts_FlowCovers 0
7
Node Left Objective IInf Best_Integer Best_Bound ItCnt Gap
0 0 7.4387 2 7.4387 48
0+ 0 nan nan 9.7351 7.4387 nan 23.59%
0 2 7.4387 2 9.7351 7.4387 48 23.59%
CPXPARAM_MIP_Cuts_CPXPARAM_MIP_Cuts_FlowCovers 0
8
Node Left Objective IInf Best_Integer Best_Bound ItCnt Gap
0 0 65.7942 6 65.7942 62
0 2 65.7942 6 65.7942 62 0 0
CPXPARAM_MIP_Cuts_CPXPARAM_MIP_Cuts_FlowCovers 0
9
Node Left Objective IInf Best_Integer Best_Bound ItCnt Gap
0 0 11.8594 6 11.8594 54
0 0 11.8594 6 Flowcuts:1 55
0+ 0 nan nan 21.1706 11.8594 nan 43.98%
0 2 11.8594 6 21.1706 11.8594 55 43.98%
CPXPARAM_MIP_Cuts_CPXPARAM_MIP_Cuts_FlowCovers 1
10
Node Left Objective IInf Best_Integer Best_Bound ItCnt Gap
0 0 60.5073 2 60.5073 52
0+ 0 nan nan 60.5115 60.5073 nan 0.01%
CPXPARAM_MIP_Cuts_CPXPARAM_MIP_Cuts_FlowCovers 0
11
Node Left Objective IInf Best_Integer Best_Bound ItCnt Gap
0 0 16.6537 2 16.6537 50
0+ 0 nan nan 16.6575 16.6537 nan 0.02%
0+ 0 nan nan 16.6575 16.6537 nan 0.02%
0 0 16.6537 2 16.6575 16.6537 104 0.02%
0 2 16.6537 2 16.6575 16.6537 104 0.02%
CPXPARAM_MIP_Cuts_CPXPARAM_MIP_Cuts_FlowCovers 0
12
Node Left Objective IInf Best_Integer Best_Bound ItCnt Gap
0 0 44.2061 6 44.2061 61
0+ 0 nan nan 68.2805 44.2061 nan 35.26%
0 2 44.2061 6 68.2805 44.2061 61 35.26%
CPXPARAM_MIP_Cuts_CPXPARAM_MIP_Cuts_FlowCovers 0
13
Node Left Objective IInf Best_Integer Best_Bound ItCnt Gap
0 0 10.2945 6 10.2945 57
0+ 0 nan nan 16.4316 10.2945 nan 37.35%
0 0 10.2945 6 16.4316 Flowcuts:1 58 37.35%
0 0 10.2945 6 16.4316 Flowcuts:1 59 37.35%
0 2 10.2945 6 16.4316 10.2945 59 37.35%
CPXPARAM_MIP_Cuts_CPXPARAM_MIP_Cuts_FlowCovers 2
14
Node Left Objective IInf Best_Integer Best_Bound ItCnt Gap
0 0 46.5469 2 46.5469 53
0+ 0 nan nan 47.4290 46.5469 nan 1.86%
0+ 0 nan nan 47.4290 46.5469 nan 1.86%
0 0 46.5469 2 47.4290 46.5469 98 1.86%
0 2 46.5469 2 47.4290 46.5469 98 1.86%
CPXPARAM_MIP_Cuts_CPXPARAM_MIP_Cuts_FlowCovers 0
15
Node Left Objective IInf Best_Integer Best_Bound ItCnt Gap
0+ 0 nan nan 754.6210 -94.3684 nan 112.51%
0 0 10.7585 2 754.6210 10.7585 50 98.57%
0+ 0 nan nan 11.1073 10.7585 nan 3.14%
0+ 0 nan nan 11.1073 10.7585 nan 3.14%
0 0 10.7585 2 11.1073 10.7585 94 3.14%
0 2 10.7585 2 11.1073 10.7585 94 3.14%
CPXPARAM_MIP_Cuts_CPXPARAM_MIP_Cuts_FlowCovers 0
16
Node Left Objective IInf Best_Integer Best_Bound ItCnt Gap
0 0 58.8715 6 58.8715 57
0 2 58.8715 6 58.8715 57 0 0
CPXPARAM_MIP_Cuts_CPXPARAM_MIP_Cuts_FlowCovers 0
17
Node Left Objective IInf Best_Integer Best_Bound ItCnt Gap
0 0 10.2675 6 10.2675 65
0+ 0 nan nan 21.7788 10.2675 nan 52.86%
0 2 10.2675 6 21.7788 10.2675 65 52.86%
CPXPARAM_MIP_Cuts_CPXPARAM_MIP_Cuts_FlowCovers 0
18
Node Left Objective IInf Best_Integer Best_Bound ItCnt Gap
0+ 0 nan nan 850.5680 -92.8051 nan 110.91%
0 0 58.3813 2 850.5680 58.3813 51 93.14%
0+ 0 nan nan 66.4612 58.3813 nan 12.16%
0 2 58.3813 2 66.4612 58.3813 51 12.16%
CPXPARAM_MIP_Cuts_CPXPARAM_MIP_Cuts_FlowCovers 0
19
Node Left Objective IInf Best_Integer Best_Bound ItCnt Gap
0+ 0 nan nan 682.2187 -97.6235 nan 114.31%
0 0 15.5882 2 682.2187 15.5882 47 97.72%
0+ 0 nan nan 15.6606 15.5882 nan 0.46%
0+ 0 nan nan 15.6606 15.5882 nan 0.46%
0 0 15.5882 2 15.6606 15.5882 89 0.46%
0 2 15.5882 2 15.6606 15.5882 89 0.46%
CPXPARAM_MIP_Cuts_CPXPARAM_MIP_Cuts_FlowCovers 0
20
Node Left Objective IInf Best_Integer Best_Bound ItCnt Gap
0 0 31.6179 6 31.6179 61
0 2 31.6179 6 31.6179 61 0 0
CPXPARAM_MIP_Cuts_CPXPARAM_MIP_Cuts_FlowCovers 0
21
Node Left Objective IInf Best_Integer Best_Bound ItCnt Gap
0 0 5.4416 6 5.4416 61
0 2 5.4416 6 5.4416 61 0 0
CPXPARAM_MIP_Cuts_CPXPARAM_MIP_Cuts_FlowCovers 0
22
Node Left Objective IInf Best_Integer Best_Bound ItCnt Gap
0 0 28.4414 2 28.4414 42
0+ 0 nan nan 28.5540 28.4414 nan 0.39%
0+ 0 nan nan 28.5540 28.4414 nan 0.39%
0 0 28.4414 2 28.5540 28.4414 84 0.39%
0 2 28.4414 2 28.5540 28.4414 84 0.39%
CPXPARAM_MIP_Cuts_CPXPARAM_MIP_Cuts_FlowCovers 0
23
Node Left Objective IInf Best_Integer Best_Bound ItCnt Gap
0 0 3.9556 2 3.9556 52
0+ 0 nan nan 4.0841 3.9556 nan 3.15%
0+ 0 nan nan 4.0841 3.9556 nan 3.15%
0 0 3.9556 2 4.0841 3.9556 102 3.15%
0 2 3.9556 2 4.0841 3.9556 102 3.15%
CPXPARAM_MIP_Cuts_CPXPARAM_MIP_Cuts_FlowCovers 0
24
Node Left Objective IInf Best_Integer Best_Bound ItCnt Gap
0 0 34.8025 6 34.8025 60
0+ 0 nan nan 38.6713 34.8025 nan 10.00%
0+ 0 nan nan 38.6713 34.8025 nan 10.00%
0 0 34.8025 6 38.6713 34.8025 120 10.00%
0 2 34.8025 6 38.6713 34.8025 120 10.00%
CPXPARAM_MIP_Cuts_CPXPARAM_MIP_Cuts_FlowCovers 0
25
Node Left Objective IInf Best_Integer Best_Bound ItCnt Gap
0 0 0.4196 6 0.4196 63
0 2 0.4196 6 0.4196 63 0 0
CPXPARAM_MIP_Cuts_CPXPARAM_MIP_Cuts_FlowCovers 0
26
Node Left Objective IInf Best_Integer Best_Bound ItCnt Gap
0 0 integral 0 36.9182 36.9182 54 0.00%
CPXPARAM_MIP_Cuts_CPXPARAM_MIP_Cuts_FlowCovers 0
27
Node Left Objective IInf Best_Integer Best_Bound ItCnt Gap
0 0 4.5323 2 4.5323 44
0+ 0 nan nan 4.5514 4.5323 nan 0.42%
0+ 0 nan nan 4.5514 4.5323 nan 0.42%
0 0 4.5323 2 4.5514 4.5323 94 0.42%
0 2 4.5323 2 4.5514 4.5323 94 0.42%
CPXPARAM_MIP_Cuts_CPXPARAM_MIP_Cuts_FlowCovers 0
28
Node Left Objective IInf Best_Integer Best_Bound ItCnt Gap
0 0 63.6500 6 63.6500 54
0 2 63.6500 6 63.6500 54 0 0
CPXPARAM_MIP_Cuts_CPXPARAM_MIP_Cuts_FlowCovers 0
29
Node Left Objective IInf Best_Integer Best_Bound ItCnt Gap
0+ 0 nan nan 994.8986 -114.3356 nan 111.49%
0+ 0 nan nan 37.2949 -114.3356 nan 406.57%
0 0 6.3884 6 37.2949 6.3884 54 82.87%
0+ 0 nan nan 16.1240 6.3884 nan 60.38%
0 2 6.3884 6 16.1240 6.3884 54 60.38%
CPXPARAM_MIP_Cuts_CPXPARAM_MIP_Cuts_FlowCovers 0
30
Node Left Objective IInf Best_Integer Best_Bound ItCnt Gap
0+ 0 nan nan 514.4143 -106.7235 nan 120.75%
0+ 0 nan nan 83.5731 -106.7235 nan 227.70%
0 0 69.0899 2 83.5731 69.0899 47 17.33%
0+ 0 nan nan 69.6843 69.0899 nan 0.85%
0+ 0 nan nan 69.6843 69.0899 nan 0.85%
0 0 69.0899 2 69.6843 69.0899 94 0.85%
0 2 69.0899 2 69.6843 69.0899 94 0.85%
CPXPARAM_MIP_Cuts_CPXPARAM_MIP_Cuts_FlowCovers 0
31
Node Left Objective IInf Best_Integer Best_Bound ItCnt Gap
0 0 7.6579 2 7.6579 41
0+ 0 nan nan 8.0780 7.6579 nan 5.20%
0+ 0 nan nan 8.0780 7.6579 nan 5.20%
0 0 7.6579 2 8.0780 7.6579 81 5.20%
0 2 7.6579 2 8.0780 7.6579 81 5.20%
CPXPARAM_MIP_Cuts_CPXPARAM_MIP_Cuts_FlowCovers 0
32
Node Left Objective IInf Best_Integer Best_Bound ItCnt Gap
0 0 46.2013 6 46.2013 60
0 2 46.2013 6 46.2013 60 0 0
CPXPARAM_MIP_Cuts_CPXPARAM_MIP_Cuts_FlowCovers 0
33
Node Left Objective IInf Best_Integer Best_Bound ItCnt Gap
0 0 0.8948 6 0.8948 57
0 2 0.8948 6 0.8948 57 0 0
CPXPARAM_MIP_Cuts_CPXPARAM_MIP_Cuts_FlowCovers 0
34
Node Left Objective IInf Best_Integer Best_Bound ItCnt Gap
0 0 41.8656 2 41.8656 44
0+ 0 nan nan 41.9255 41.8656 nan 0.14%
0+ 0 nan nan 41.9255 41.8656 nan 0.14%
0 0 41.8656 2 41.9255 41.8656 83 0.14%
0 2 41.8656 2 41.9255 41.8656 83 0.14%
CPXPARAM_MIP_Cuts_CPXPARAM_MIP_Cuts_FlowCovers 0
35
Node Left Objective IInf Best_Integer Best_Bound ItCnt Gap
0 0 10.6421 2 10.6421 45
0+ 0 nan nan 12.3010 10.6421 nan 13.49%
0+ 0 nan nan 12.3010 10.6421 nan 13.49%
0 0 10.6421 2 12.3010 10.6421 92 13.49%
0 2 10.6421 2 12.3010 10.6421 92 13.49%
CPXPARAM_MIP_Cuts_CPXPARAM_MIP_Cuts_FlowCovers 0
36
Node Left Objective IInf Best_Integer Best_Bound ItCnt Gap
0 0 48.4886 6 48.4886 59
0+ 0 nan nan 52.9256 48.4886 nan 8.38%
0+ 0 nan nan 52.9256 48.4886 nan 8.38%
0 0 48.4886 6 52.9256 48.4886 118 8.38%
0 2 48.4886 6 52.9256 48.4886 118 8.38%
CPXPARAM_MIP_Cuts_CPXPARAM_MIP_Cuts_FlowCovers 0
37
Node Left Objective IInf Best_Integer Best_Bound ItCnt Gap
0 0 -6.1266 6 -6.1266 62
0 2 -6.1266 6 -6.1266 62 0 0
CPXPARAM_MIP_Cuts_CPXPARAM_MIP_Cuts_FlowCovers 0
38
Node Left Objective IInf Best_Integer Best_Bound ItCnt Gap
0 0 47.4773 2 47.4773 45
0+ 0 nan nan 47.5785 47.4773 nan 0.21%
0 0 47.4773 2 47.5785 Flowcuts:1 46 0.21%
0+ 0 nan nan 47.5785 47.4773 nan 0.21%
0 0 47.4773 2 47.5785 47.4773 89 0.21%
0 0 47.4773 2 47.5785 Flowcuts:3 91 0.21%
0 0 47.4773 2 47.5785 Flowcuts:1 92 0.21%
0 2 47.4773 2 47.5785 47.4773 92 0.21%
CPXPARAM_MIP_Cuts_CPXPARAM_MIP_Cuts_FlowCovers 2
39
Node Left Objective IInf Best_Integer Best_Bound ItCnt Gap
0 0 7.0905 2 7.0905 43
0+ 0 nan nan 7.1260 7.0905 nan 0.50%
0+ 0 nan nan 7.1260 7.0905 nan 0.50%
0 0 7.0905 2 7.1260 7.0905 85 0.50%
0 2 7.0905 2 7.1260 7.0905 85 0.50%
CPXPARAM_MIP_Cuts_CPXPARAM_MIP_Cuts_FlowCovers 0
